	Costo	Iter.	Tiempo
1	527,67	176	52,14
2	862,53	162	87
3	845,48	190	247,781
4	1104,01	97	302,25
5	1419,54	54	303,422
6	560,88	244	70,703
7	933,61	180	300,641
8	868,55	147	301,374
9	1263,55	3	326,155
10	1510,47	2	478,031
11	1243,16	134	300,64
12	845,99	110	129,187
13	1640,08	200	285,687
14	868,71	276	156,218
